
Gurobi 13.0.2 (win64) logging started Fri Jul 24 09:29:47 2026

Set parameter LogFile to value "E:\codes\ExactEBRP\results\gf_c0_mechanism_transfer_c5_round30\runs\stage2__moderate_seed5301__c5_candidate__300s\external\native_logs\L0.1.1.1.1.0_terminal_mip.gurobi.log"
Gurobi Optimizer version 13.0.2 build v13.0.2rc1 (win64 - Windows 10.0 (19045.2))

CPU model: 12th Gen Intel(R) Core(TM) i7-12700KF, instruction set [SSE2|AVX|AVX2]
Thread count: 12 physical cores, 20 logical processors, using up to 1 threads

Non-default parameters:
TimeLimit  2.2871149029999998e+02
MIPGap  0
MIPGapAbs  0
LogToConsole  0
Threads  1

Optimize a model with 11944 rows, 3386 columns and 67436 nonzeros (Min)
Model fingerprint: 0x99d10936
Model has 21 linear objective coefficients
Variable types: 1690 continuous, 1696 integer (1496 binary)
Coefficient statistics:
  Matrix range     [9e-03, 1e+04]
  Objective range  [9e-03, 1e+00]
  Bounds range     [4e-02, 2e+02]
  RHS range        [4e-02, 5e+04]

Presolve removed 996 rows and 82 columns
Presolve time: 0.19s
Presolved: 10948 rows, 3304 columns, 87620 nonzeros
Variable types: 1638 continuous, 1666 integer (1476 binary)

Root relaxation: objective 8.352218e-02, 2970 iterations, 0.15 seconds (0.39 work units)

    Nodes    |    Current Node    |     Objective Bounds      |     Work
 Expl Unexpl |  Obj  Depth IntInf | Incumbent    BestBd   Gap | It/Node Time

     0     0    0.08352    0  177          -    0.08352      -     -    0s
     0     0 infeasible    0               - infeasible      -     -    1s

Cutting planes:
  Learned: 6
  Gomory: 5
  Cover: 19
  Implied bound: 155
  Clique: 10
  MIR: 364
  StrongCG: 10
  Flow cover: 53
  GUB cover: 2
  Zero half: 8
  Network: 10
  RLT: 7
  Relax-and-lift: 31
  BQP: 14

Explored 1 nodes (5408 simplex iterations) in 1.01 seconds (2.00 work units)
Thread count was 1 (of 20 available processors)

Solution count 0

Model is infeasible
Best objective -, best bound -, gap -

User-callback calls 894, time in user-callback 0.00 sec
